CapLotSizing_PM/src/Instancias/TCLSHT/6i6p6m/NBA00.OUT
 CG ITER, OVMR, OVMRUB =           1   10638.0371094    6395.1997070
 CG ITER, OVMR, OVMRUB =           2    6395.1997070    6395.1997070
 CG ITER, OVMR, OVMRUB =           3    6395.2011719    6395.1997070
 CG ITER, OVMR, OVMRUB =           4    6395.1997070    6395.1997070
 CG ITER, OVMR, OVMRUB =           5    6395.1997070    6395.1997070
 CG ITER, OVMR, OVMRUB =           6    6395.1997070    6395.1997070
 CG ITER, OVMR, OVMRUB =           7    6395.1997070    6395.1997070
 CG ITER, OVMR, OVMRUB =           8    6395.1997070    6395.1997070
 CG ITER, OVMR, OVMRUB =           9    6395.1997070    6395.1997070
 CG ITER, OVMR, OVMRUB =          10    6395.1997070    6395.1997070
OVLB =    6395.1997070 OVLUB =    6395.1997070 TIME =       0.4000000
